certificates/rado_a7_c292_N42.cnf
c Rad2 upper bound instance: x1 + 7*x2 - x3 = 292, interval [1,42]
p cnf 42 314
1 3 42 0
-1 -3 -42 0
2 4 42 0
-2 -4 -42 0
3 5 42 0
-3 -5 -42 0
4 6 42 0
-4 -6 -42 0
5 7 42 0
-5 -7 -42 0
1 6 41 0
-1 -6 -41 0
6 8 42 0
-6 -8 -42 0
2 7 41 0
-2 -7 -41 0
7 9 42 0
-7 -9 -42 0
3 8 41 0
-3 -8 -41 0
8 10 42 0
-8 -10 -42 0
4 9 41 0
-4 -9 -41 0
9 11 42 0
-9 -11 -42 0
5 10 41 0
-5 -10 -41 0
10 12 42 0
-10 -12 -42 0
6 11 41 0
-6 -11 -41 0
11 13 42 0
-11 -13 -42 0
7 12 41 0
-7 -12 -41 0
12 14 42 0
-12 -14 -42 0
1 13 40 0
-1 -13 -40 0
8 13 41 0
-8 -13 -41 0
13 15 42 0
-13 -15 -42 0
2 14 40 0
-2 -14 -40 0
9 14 41 0
-9 -14 -41 0
14 16 42 0
-14 -16 -42 0
3 15 40 0
-3 -15 -40 0
10 15 41 0
-10 -15 -41 0
15 17 42 0
-15 -17 -42 0
4 16 40 0
-4 -16 -40 0
11 16 41 0
-11 -16 -41 0
16 18 42 0
-16 -18 -42 0
5 17 40 0
-5 -17 -40 0
12 17 41 0
-12 -17 -41 0
17 19 42 0
-17 -19 -42 0
6 18 40 0
-6 -18 -40 0
13 18 41 0
-13 -18 -41 0
18 20 42 0
-18 -20 -42 0
7 19 40 0
-7 -19 -40 0
14 19 41 0
-14 -19 -41 0
19 21 42 0
-19 -21 -42 0
1 20 39 0
-1 -20 -39 0
8 20 40 0
-8 -20 -40 0
15 20 41 0
-15 -20 -41 0
20 22 42 0
-20 -22 -42 0
2 21 39 0
-2 -21 -39 0
9 21 40 0
-9 -21 -40 0
16 21 41 0
-16 -21 -41 0
21 23 42 0
-21 -23 -42 0
3 22 39 0
-3 -22 -39 0
10 22 40 0
-10 -22 -40 0
17 22 41 0
-17 -22 -41 0
22 24 42 0
-22 -24 -42 0
4 23 39 0
-4 -23 -39 0
11 23 40 0
-11 -23 -40 0
18 23 41 0
-18 -23 -41 0
23 25 42 0
-23 -25 -42 0
5 24 39 0
-5 -24 -39 0
12 24 40 0
-12 -24 -40 0
19 24 41 0
-19 -24 -41 0
24 26 42 0
-24 -26 -42 0
6 25 39 0
-6 -25 -39 0
13 25 40 0
-13 -25 -40 0
20 25 41 0
-20 -25 -41 0
25 27 42 0
-25 -27 -42 0
7 26 39 0
-7 -26 -39 0
14 26 40 0
-14 -26 -40 0
21 26 41 0
-21 -26 -41 0
26 28 42 0
-26 -28 -42 0
1 27 38 0
-1 -27 -38 0
8 27 39 0
-8 -27 -39 0
15 27 40 0
-15 -27 -40 0
22 27 41 0
-22 -27 -41 0
27 29 42 0
-27 -29 -42 0
2 28 38 0
-2 -28 -38 0
9 28 39 0
-9 -28 -39 0
16 28 40 0
-16 -28 -40 0
23 28 41 0
-23 -28 -41 0
28 30 42 0
-28 -30 -42 0
3 29 38 0
-3 -29 -38 0
10 29 39 0
-10 -29 -39 0
17 29 40 0
-17 -29 -40 0
24 29 41 0
-24 -29 -41 0
29 31 42 0
-29 -31 -42 0
4 30 38 0
-4 -30 -38 0
11 30 39 0
-11 -30 -39 0
18 30 40 0
-18 -30 -40 0
25 30 41 0
-25 -30 -41 0
30 32 42 0
-30 -32 -42 0
5 31 38 0
-5 -31 -38 0
12 31 39 0
-12 -31 -39 0
19 31 40 0
-19 -31 -40 0
26 31 41 0
-26 -31 -41 0
31 33 42 0
-31 -33 -42 0
6 32 38 0
-6 -32 -38 0
13 32 39 0
-13 -32 -39 0
20 32 40 0
-20 -32 -40 0
27 32 41 0
-27 -32 -41 0
32 34 42 0
-32 -34 -42 0
7 33 38 0
-7 -33 -38 0
14 33 39 0
-14 -33 -39 0
21 33 40 0
-21 -33 -40 0
28 33 41 0
-28 -33 -41 0
33 35 42 0
-33 -35 -42 0
1 34 37 0
-1 -34 -37 0
8 34 38 0
-8 -34 -38 0
15 34 39 0
-15 -34 -39 0
22 34 40 0
-22 -34 -40 0
29 34 41 0
-29 -34 -41 0
34 36 42 0
-34 -36 -42 0
2 35 37 0
-2 -35 -37 0
9 35 38 0
-9 -35 -38 0
16 35 39 0
-16 -35 -39 0
23 35 40 0
-23 -35 -40 0
30 35 41 0
-30 -35 -41 0
35 37 42 0
-35 -37 -42 0
3 36 37 0
-3 -36 -37 0
10 36 38 0
-10 -36 -38 0
17 36 39 0
-17 -36 -39 0
24 36 40 0
-24 -36 -40 0
31 36 41 0
-31 -36 -41 0
36 38 42 0
-36 -38 -42 0
4 37 0
-4 -37 0
11 37 38 0
-11 -37 -38 0
18 37 39 0
-18 -37 -39 0
25 37 40 0
-25 -37 -40 0
32 37 41 0
-32 -37 -41 0
37 39 42 0
-37 -39 -42 0
5 37 38 0
-5 -37 -38 0
12 38 0
-12 -38 0
19 38 39 0
-19 -38 -39 0
26 38 40 0
-26 -38 -40 0
33 38 41 0
-33 -38 -41 0
38 40 42 0
-38 -40 -42 0
6 37 39 0
-6 -37 -39 0
13 38 39 0
-13 -38 -39 0
20 39 0
-20 -39 0
27 39 40 0
-27 -39 -40 0
34 39 41 0
-34 -39 -41 0
39 41 42 0
-39 -41 -42 0
7 37 40 0
-7 -37 -40 0
14 38 40 0
-14 -38 -40 0
21 39 40 0
-21 -39 -40 0
28 40 0
-28 -40 0
35 40 41 0
-35 -40 -41 0
40 42 0
-40 -42 0
1 36 41 0
-1 -36 -41 0
8 37 41 0
-8 -37 -41 0
15 38 41 0
-15 -38 -41 0
22 39 41 0
-22 -39 -41 0
29 40 41 0
-29 -40 -41 0
36 41 0
-36 -41 0
2 36 42 0
-2 -36 -42 0
9 37 42 0
-9 -37 -42 0
16 38 42 0
-16 -38 -42 0
23 39 42 0
-23 -39 -42 0
30 40 42 0
-30 -40 -42 0
37 41 42 0
-37 -41 -42 0
