certificates/rado_a7_c292_N42.drat
-42 0
40 0
-28 0
26 0
30 0
-14 0
-38 0
-18 0
12 0
16 0
36 0
2 0
20 0
-24 0
-4 0
-41 0
-8 0
-32 0
-39 0
22 0
5 0
19 0
29 0
6 0
9 0
23 0
37 0
0
